100
32
9
19
18
19
12
17
23
28
18
17
15
27
27
11
6
1
8
29
30
17
2
8
8
1
2
15
5
1
1
13
15
10
5
1
10
12
2
17
3
3
18
2
6
1
1
1
1
3
2
8
1
3
19
2
3
7
20
3
1
2
1
1
3
1
4
2
1
9
1
2
1
24
17
3
8
1
4
3
2
17
2
5
18
1
2
2
2
2
1
1
1
1
2
1
7
3
17
1
3
2